543 5
10 10 10 10 10 

0 0 0 0 0 0 5 2 14 26 38 50 
0 0 0 0 0 0 3 3 4 9 
3 0 0 1 0 0 1 5 
10 0 0 2 0 0 1 5 
9 0 0 3 0 0 2 7 6 
8 0 0 1 0 0 3 12 10 8 
3 0 0 3 0 0 2 11 10 
3 0 0 2 0 0 1 11 
9 0 0 4 0 0 1 10 
7 0 0 3 0 0 2 13 90 
1 0 0 3 0 0 1 13 
5 0 0 3 0 0 1 13 
0 0 0 0 0 0 1 62 
0 0 0 0 0 0 4 15 16 20 24 
8 1 0 0 0 0 3 23 22 17 
4 3 0 0 0 0 2 22 19 
6 3 0 0 0 0 2 18 485 
1 4 0 0 0 0 1 19 
5 2 0 0 0 0 1 21 
10 4 0 0 0 0 1 21 
6 1 0 0 0 0 1 25 
5 1 0 0 0 0 1 25 
3 2 0 0 0 0 1 25 
5 4 0 0 0 0 1 25 
0 0 0 0 0 0 1 62 
0 0 0 0 0 0 1 27 
8 0 0 0 1 0 2 29 28 
8 0 0 0 2 0 2 31 30 
10 0 0 0 1 0 2 31 30 
4 0 0 0 3 0 2 33 32 
10 0 0 0 3 0 2 33 32 
6 0 0 0 5 0 4 36 35 34 51 
6 0 0 0 4 0 3 36 35 34 
1 0 0 0 2 0 1 37 
3 0 0 0 2 0 1 37 
6 0 0 0 2 0 1 37 
0 0 0 0 0 0 1 62 
0 0 0 0 0 0 4 39 42 43 502 
8 0 0 1 0 0 2 41 40 
7 0 0 3 0 0 2 48 44 
6 0 0 1 0 0 2 48 45 
2 0 0 5 0 0 2 48 45 
7 0 0 3 0 0 2 48 45 
8 0 0 3 0 0 1 45 
7 0 0 1 0 0 2 47 46 
6 0 0 4 0 0 1 49 
9 0 0 2 0 0 1 49 
4 0 0 2 0 0 1 49 
0 0 0 0 0 0 1 62 
0 0 0 0 0 0 4 51 55 57 467 
1 0 0 1 0 0 2 53 52 
8 0 0 5 0 0 2 60 54 
4 0 0 2 0 0 2 60 56 
2 0 0 1 0 0 1 56 
4 0 0 3 0 0 1 56 
7 0 0 2 0 0 2 59 58 
1 0 0 3 0 0 2 60 58 
4 0 0 2 0 0 1 61 
1 0 0 4 0 0 1 61 
9 0 0 2 0 0 1 61 
0 0 0 0 0 0 1 62 
0 0 0 0 0 0 5 63 105 117 159 201 
0 0 0 0 0 0 2 64 67 
5 0 1 1 1 1 1 65 
2 0 1 2 1 6 2 68 66 
6 0 5 4 2 7 4 83 75 73 69 
10 0 3 1 5 2 3 83 73 70 
2 0 3 4 3 2 4 89 83 74 71 
10 0 2 4 2 2 1 70 
2 0 2 3 2 1 2 74 71 
5 0 2 3 2 2 2 87 72 
8 0 5 3 2 1 2 88 76 
9 0 1 1 1 2 1 74 
1 0 4 2 4 2 4 88 85 80 77 
5 0 1 3 3 2 5 93 88 85 80 78 
5 0 2 2 2 2 3 85 80 77 
1 0 3 4 3 2 2 93 78 
3 0 2 3 3 2 1 79 
1 0 3 2 4 4 4 103 98 91 81 
6 0 1 2 4 4 2 91 81 
5 0 1 2 3 4 2 102 82 
8 0 3 1 4 1 2 96 84 
7 0 1 1 2 2 2 90 88 
1 0 3 2 2 4 1 86 
4 0 3 5 2 3 1 86 
4 0 3 2 2 4 1 90 
9 0 3 3 3 5 1 88 
9 0 3 4 3 3 3 101 96 94 
6 0 1 1 3 2 3 101 96 94 
6 0 1 4 2 1 2 100 92 
9 0 3 2 2 1 2 96 94 
4 0 2 2 4 2 2 101 95 
2 0 4 4 2 1 1 95 
10 0 2 3 4 3 2 100 99 
9 0 2 2 2 3 1 97 
10 0 5 3 2 3 1 97 
3 0 2 1 2 1 1 99 
9 0 3 3 2 1 2 100 181 
1 0 4 1 2 1 1 104 
8 0 2 2 1 4 1 104 
8 0 1 2 3 2 1 104 
5 0 2 1 3 4 1 104 
6 0 5 5 1 1 1 104 
0 0 0 0 0 0 1 543 
0 0 0 0 0 0 2 106 107 
2 0 0 1 0 0 1 108 
2 0 0 4 0 0 1 108 
7 0 0 3 0 0 1 109 
4 0 0 4 0 0 3 115 111 110 
6 0 0 2 0 0 3 114 113 112 
6 0 0 3 0 0 4 114 113 112 502 
8 0 0 2 0 0 1 116 
10 0 0 1 0 0 1 116 
5 0 0 2 0 0 1 116 
2 0 0 3 0 0 1 116 
0 0 0 0 0 0 5 243 275 307 339 371 
0 0 0 0 0 0 2 118 120 
2 1 1 1 0 1 1 119 
1 1 2 2 0 2 2 122 121 
6 1 2 3 0 3 1 121 
3 1 3 1 0 3 4 133 127 125 124 
6 3 1 2 0 4 3 127 125 123 
2 5 1 2 0 6 1 124 
1 2 1 4 0 3 3 131 130 126 
7 5 3 3 0 3 3 137 130 129 
9 3 3 4 0 1 2 137 128 
2 2 2 2 0 1 3 130 129 397 
5 2 2 2 0 3 1 129 
5 3 5 3 0 3 3 142 139 132 
3 2 1 2 0 3 3 142 139 132 
9 1 2 1 0 5 3 142 139 132 
4 2 4 3 0 4 2 136 134 
9 2 3 4 0 2 3 141 140 137 
10 1 3 1 0 1 1 135 
1 4 2 1 0 2 4 150 145 141 138 
6 3 1 2 0 2 2 145 138 
1 1 4 1 0 2 3 150 144 142 
7 3 2 2 0 1 1 140 
3 1 2 1 0 1 3 150 148 143 
3 2 3 3 0 2 2 146 143 
1 3 4 2 0 4 3 152 148 147 
1 5 2 4 0 4 2 151 145 
7 3 2 2 0 3 1 144 
8 4 1 4 0 5 2 152 147 
8 4 2 1 0 3 1 148 
3 3 3 3 0 3 1 148 
2 4 6 1 0 2 2 157 151 
8 2 3 4 0 1 1 149 
4 3 2 3 0 1 3 157 156 153 
7 1 3 4 0 3 3 157 156 154 
10 1 2 1 0 2 2 156 153 
2 3 1 2 0 2 2 157 156 
1 2 1 4 0 2 1 154 
7 2 7 4 0 2 1 155 
5 1 2 3 0 1 1 158 
10 3 3 4 0 2 1 158 
7 5 3 4 0 2 1 158 
0 0 0 0 0 0 1 543 
0 0 0 0 0 0 2 160 164 
5 1 1 1 1 0 1 161 
6 2 7 1 2 0 2 163 162 
10 2 2 3 3 0 3 170 168 165 
5 3 2 2 4 0 3 182 168 166 
7 2 2 1 2 0 2 168 166 
1 2 2 2 2 0 1 166 
2 5 2 5 1 0 3 173 172 167 
1 1 2 5 3 0 2 181 169 
3 3 2 3 3 0 2 181 172 
1 3 3 3 3 0 1 171 
9 2 5 2 2 0 1 171 
2 3 5 2 5 0 3 184 180 174 
5 2 2 2 4 0 3 184 180 174 
5 2 4 1 5 0 5 187 184 180 177 176 
10 2 2 2 1 0 3 187 177 175 
8 2 5 4 1 0 1 176 
6 1 2 1 3 0 3 199 188 178 
9 2 1 2 1 0 2 188 178 
4 2 2 3 2 0 2 194 179 
3 1 2 4 2 0 3 198 192 183 
7 3 2 2 4 0 3 199 198 183 
10 1 2 2 5 0 2 189 184 
6 2 4 1 1 0 2 189 184 
7 3 3 2 1 0 2 185 480 
9 1 3 3 3 0 2 197 188 
6 5 1 3 4 0 1 186 
2 3 4 4 5 0 2 196 189 
1 2 2 2 1 0 3 197 196 191 
3 5 3 3 4 0 2 192 190 
2 5 3 3 1 0 2 197 191 
4 6 2 2 2 0 2 196 193 
9 2 2 2 2 0 1 193 
5 4 1 1 2 0 1 193 
8 2 1 5 2 0 1 195 
8 3 3 2 2 0 1 196 
5 2 1 3 3 0 1 200 
5 1 3 3 3 0 1 200 
1 2 3 2 1 0 1 200 
6 3 1 1 1 0 1 200 
3 2 1 5 3 0 1 200 
0 0 0 0 0 0 1 543 
0 0 0 0 0 0 2 202 204 
1 1 1 0 1 1 1 203 
5 3 2 0 2 2 2 206 205 
5 3 2 0 7 2 2 207 205 
5 2 2 0 5 1 4 217 210 209 208 
2 3 2 0 3 2 3 210 209 207 
6 3 1 0 1 3 1 208 
10 3 1 0 3 2 3 213 212 211 
9 3 3 0 1 4 2 214 212 
9 3 2 0 2 4 2 214 212 
5 1 2 0 1 1 2 218 214 
1 1 4 0 4 3 2 218 215 
9 3 2 0 3 2 2 218 215 
3 3 1 0 2 3 1 215 
9 1 1 0 3 3 1 216 
4 4 4 0 4 2 3 223 220 219 
1 2 5 0 5 3 2 223 218 
5 3 2 0 4 3 2 222 221 
2 3 2 0 2 1 3 226 224 222 
5 1 4 0 4 2 1 221 
9 4 2 0 3 3 3 227 226 224 
10 3 4 0 2 2 4 232 230 228 227 
9 4 4 0 3 2 4 230 228 226 399 
6 2 2 0 2 4 1 225 
5 4 5 0 2 2 2 230 228 
8 4 4 0 1 4 3 233 232 229 
3 2 1 0 3 2 2 233 231 
2 1 4 0 1 1 1 229 
10 3 2 0 3 3 2 234 231 
6 2 3 0 1 5 2 236 233 
2 2 4 0 1 3 2 236 235 
4 3 1 0 1 1 2 236 235 
5 2 1 0 1 2 1 234 
1 3 2 0 1 2 2 239 237 
2 3 2 0 3 2 2 239 237 
9 2 1 0 3 2 3 241 239 238 
3 2 3 0 3 4 2 241 238 
5 1 4 0 3 5 1 240 
6 2 4 0 2 2 1 240 
5 3 1 0 2 3 1 242 
6 2 3 0 2 2 1 242 
0 0 0 0 0 0 1 543 
0 0 0 0 0 0 3 244 258 273 
8 0 0 1 1 1 2 272 245 
8 0 0 3 2 1 2 270 246 
1 0 0 2 2 2 1 247 
4 0 0 3 6 2 4 269 268 248 469 
5 0 0 1 3 1 3 267 266 249 
5 0 0 2 4 1 2 265 250 
4 0 0 4 3 3 1 251 
6 0 0 3 3 4 2 264 252 
3 0 0 2 2 3 1 253 
3 0 0 3 3 5 2 263 254 
8 0 0 1 2 1 3 262 261 255 
6 0 0 4 2 2 2 260 256 
1 0 0 1 3 3 1 257 
9 0 0 2 1 2 1 259 
3 0 0 2 2 4 1 271 
7 0 0 1 2 3 1 274 
9 0 0 3 5 1 1 274 
3 0 0 6 1 3 1 274 
5 0 0 3 4 4 1 274 
1 0 0 1 3 3 1 274 
4 0 0 4 1 2 1 274 
7 0 0 3 4 6 1 274 
6 0 0 2 1 1 1 274 
9 0 0 2 3 3 1 274 
5 0 0 3 2 2 1 274 
2 0 0 3 2 3 1 274 
6 0 0 2 2 1 1 274 
4 0 0 3 3 1 1 274 
9 0 0 1 1 5 1 274 
10 0 0 4 2 2 1 274 
0 0 0 0 0 0 1 543 
0 0 0 0 0 0 3 276 277 282 
1 0 1 0 1 1 2 287 278 
7 0 4 0 2 2 2 287 278 
6 0 2 0 1 3 2 283 279 
7 0 3 0 3 4 2 284 280 
1 0 1 0 3 2 1 281 
1 0 3 0 4 4 3 291 288 285 
7 0 1 0 2 2 2 287 286 
1 0 3 0 3 3 1 284 
6 0 3 0 1 4 2 291 286 
9 0 3 0 2 3 1 286 
7 0 3 0 3 2 3 296 293 289 
2 0 1 0 1 4 2 291 289 
10 0 3 0 2 1 2 296 290 
7 0 3 0 2 6 1 290 
6 0 4 0 1 1 2 298 292 
1 0 2 0 4 1 2 296 292 
7 0 2 0 2 3 1 294 
2 0 2 0 2 2 1 294 
1 0 3 0 4 3 2 295 536 
9 0 4 0 3 1 3 305 300 297 
5 0 2 0 2 3 3 305 300 297 
6 0 3 0 2 3 4 304 303 301 299 
10 0 3 0 2 3 2 301 299 
7 0 3 0 4 1 1 302 
7 0 3 0 5 2 1 301 
9 0 1 0 3 1 1 306 
9 0 3 0 2 1 1 306 
8 0 2 0 2 2 1 306 
2 0 2 0 2 6 1 306 
8 0 2 0 5 1 1 306 
0 0 0 0 0 0 1 543 
0 0 0 0 0 0 3 308 318 337 
4 1 1 0 1 0 2 336 309 
1 2 3 0 3 0 2 334 310 
2 2 4 0 3 0 1 311 
6 3 1 0 2 0 3 333 331 312 
7 3 3 0 3 0 2 332 313 
10 3 2 0 3 0 3 330 329 314 
9 2 1 0 3 0 1 315 
9 1 1 0 1 0 2 328 316 
8 2 3 0 4 0 1 317 
5 3 3 0 1 0 1 319 
4 1 3 0 4 0 6 335 331 329 325 324 321 
3 2 3 0 4 0 2 327 320 
2 2 2 0 1 0 4 326 325 324 321 
9 2 2 0 4 0 1 322 
7 3 4 0 4 0 1 323 
3 2 2 0 1 0 1 338 
1 2 2 0 2 0 1 338 
9 2 3 0 2 0 1 338 
4 3 3 0 5 0 1 338 
6 5 2 0 1 0 1 338 
1 3 3 0 4 0 1 338 
1 1 2 0 1 0 1 338 
5 3 2 0 1 0 1 338 
7 5 1 0 2 0 1 338 
5 4 2 0 3 0 2 338 486 
3 2 4 0 1 0 1 338 
1 1 4 0 2 0 1 338 
2 2 3 0 4 0 1 338 
7 5 2 0 3 0 1 338 
6 3 4 0 2 0 1 338 
0 0 0 0 0 0 1 543 
0 0 0 0 0 0 3 340 341 345 
1 1 0 0 1 1 2 347 342 
6 3 0 0 3 2 2 347 342 
8 3 0 0 2 7 2 348 343 
8 3 0 0 1 1 3 349 344 395 
7 2 0 0 1 1 1 346 
3 5 0 0 2 5 1 347 
3 3 0 0 2 2 3 355 352 350 
7 2 0 0 2 3 2 350 349 
9 3 0 0 2 3 2 350 349 
7 2 0 0 2 1 2 355 351 
1 2 0 0 3 2 1 351 
10 3 0 0 3 3 2 359 353 
10 2 0 0 2 1 2 359 353 
1 2 0 0 3 1 2 357 354 
10 1 0 0 1 3 2 362 356 
3 4 0 0 3 3 2 359 356 
3 3 0 0 1 3 1 358 
4 2 0 0 5 3 1 358 
6 2 0 0 4 2 1 360 
4 1 0 0 3 2 1 360 
2 2 0 0 4 2 2 364 361 
2 3 0 0 2 4 5 369 368 367 365 363 
1 3 0 0 3 2 3 367 365 363 
9 3 0 0 3 3 1 366 
2 1 0 0 1 3 1 365 
1 3 0 0 4 3 1 370 
5 3 0 0 1 3 1 370 
1 4 0 0 5 3 1 370 
10 2 0 0 2 1 1 370 
3 2 0 0 4 2 1 370 
0 0 0 0 0 0 1 543 
0 0 0 0 0 0 4 372 373 374 376 
6 1 0 0 0 0 2 381 377 
8 2 0 0 0 0 1 375 
2 1 0 0 0 0 2 380 378 
5 1 0 0 0 0 1 377 
5 3 0 0 0 0 1 377 
3 5 0 0 0 0 2 378 511 
1 3 0 0 0 0 1 379 
3 2 0 0 0 0 1 382 
3 4 0 0 0 0 1 382 
2 3 0 0 0 0 1 382 
0 0 0 0 0 0 5 383 405 427 439 461 
0 0 0 0 0 0 3 384 386 391 
10 1 0 0 1 0 1 385 
9 4 0 0 3 0 3 403 396 387 
9 3 0 0 2 0 2 396 387 
10 2 0 0 1 0 4 402 401 400 388 
4 6 0 0 4 0 2 395 389 
10 5 0 0 5 0 2 399 390 
5 1 0 0 2 0 1 392 
10 1 0 0 3 0 2 398 394 
8 3 0 0 2 0 1 393 
6 5 0 0 2 0 1 394 
2 3 0 0 4 0 1 397 
7 1 0 0 2 0 1 398 
1 2 0 0 2 0 1 400 
5 3 0 0 2 0 1 404 
10 3 0 0 3 0 1 404 
7 1 0 0 3 0 2 404 521 
9 3 0 0 1 0 1 404 
9 1 0 0 5 0 1 404 
6 1 0 0 2 0 1 404 
5 1 0 0 1 0 1 404 
0 0 0 0 0 0 1 543 
0 0 0 0 0 0 5 406 408 423 424 425 
3 0 0 0 1 1 5 422 421 419 418 407 
4 0 0 0 1 4 2 420 409 
3 0 0 0 3 1 3 419 418 410 
10 0 0 0 3 3 2 417 410 
8 0 0 0 1 1 1 411 
4 0 0 0 1 1 1 412 
9 0 0 0 3 1 1 413 
1 0 0 0 4 2 1 414 
2 0 0 0 4 2 1 415 
6 0 0 0 3 2 1 416 
4 0 0 0 2 4 1 426 
2 0 0 0 2 2 1 426 
7 0 0 0 3 2 2 426 499 
6 0 0 0 2 2 1 426 
3 0 0 0 3 2 1 426 
2 0 0 0 1 1 1 426 
7 0 0 0 4 4 1 426 
10 0 0 0 3 3 1 426 
8 0 0 0 3 8 1 426 
7 0 0 0 3 4 1 426 
0 0 0 0 0 0 1 543 
0 0 0 0 0 0 4 428 430 436 437 
1 0 0 1 0 0 2 434 429 
6 0 0 5 0 0 2 435 431 
7 0 0 3 0 0 2 434 432 
8 0 0 5 0 0 1 432 
9 0 0 1 0 0 2 433 488 
9 0 0 3 0 0 1 438 
4 0 0 1 0 0 1 438 
2 0 0 1 0 0 1 438 
8 0 0 3 0 0 1 438 
3 0 0 2 0 0 1 438 
0 0 0 0 0 0 5 483 495 507 519 531 
0 0 0 0 0 0 2 440 459 
10 1 0 0 0 1 1 441 
7 3 0 0 0 1 2 444 442 
1 4 0 0 0 2 1 443 
7 1 0 0 0 2 2 453 445 
9 3 0 0 0 1 1 445 
2 3 0 0 0 5 4 451 450 448 446 
6 1 0 0 0 3 1 447 
4 3 0 0 0 1 2 457 449 
9 2 0 0 0 1 2 457 449 
6 3 0 0 0 4 3 456 455 452 
10 3 0 0 0 5 3 456 455 452 
6 4 0 0 0 3 3 456 455 452 
4 3 0 0 0 4 1 454 
7 3 0 0 0 3 1 458 
2 2 0 0 0 4 1 460 
3 2 0 0 0 1 1 460 
5 2 0 0 0 2 1 460 
1 2 0 0 0 2 1 460 
5 2 0 0 0 3 1 460 
9 3 0 0 0 2 1 460 
0 0 0 0 0 0 1 543 
0 0 0 0 0 0 2 462 464 
2 0 0 1 1 0 2 467 463 
6 0 0 2 4 0 1 465 
3 0 0 3 4 0 1 465 
5 0 0 3 3 0 3 470 468 466 
7 0 0 3 3 0 4 481 475 472 469 
4 0 0 2 2 0 3 473 471 470 
5 0 0 1 3 0 3 477 475 473 
3 0 0 5 5 0 2 480 471 
2 0 0 3 1 0 3 480 479 476 
5 0 0 4 2 0 2 479 474 
4 0 0 3 2 0 2 479 476 
9 0 0 2 1 0 3 481 479 478 
5 0 0 2 2 0 1 476 
7 0 0 3 2 0 2 480 478 
9 0 0 2 2 0 1 477 
1 0 0 3 3 0 1 478 
10 0 0 1 4 0 1 482 
10 0 0 3 1 0 1 482 
7 0 0 2 1 0 1 482 
3 0 0 2 4 0 1 482 
0 0 0 0 0 0 1 543 
0 0 0 0 0 0 3 484 485 487 
1 0 1 0 0 0 2 488 486 
6 0 4 0 0 0 2 488 486 
5 0 3 0 0 0 2 490 489 
3 0 2 0 0 0 2 492 490 
4 0 4 0 0 0 1 489 
10 0 1 0 0 0 2 492 491 
6 0 2 0 0 0 1 491 
5 0 2 0 0 0 1 493 
5 0 3 0 0 0 1 493 
5 0 3 0 0 0 1 494 
0 0 0 0 0 0 1 543 
0 0 0 0 0 0 1 496 
3 1 0 0 0 0 2 505 497 
10 2 0 0 0 0 3 504 499 498 
3 3 0 0 0 0 3 503 502 500 
1 1 0 0 0 0 2 502 501 
6 3 0 0 0 0 1 501 
3 4 0 0 0 0 1 506 
5 2 0 0 0 0 1 506 
8 2 0 0 0 0 1 506 
3 4 0 0 0 0 1 506 
10 3 0 0 0 0 1 506 
0 0 0 0 0 0 1 543 
0 0 0 0 0 0 1 508 
1 0 1 0 0 0 2 510 509 
7 0 5 0 0 0 2 512 511 
7 0 3 0 0 0 2 512 511 
9 0 2 0 0 0 3 517 515 513 
2 0 1 0 0 0 2 514 513 
4 0 3 0 0 0 1 516 
9 0 1 0 0 0 1 516 
9 0 2 0 0 0 1 516 
3 0 2 0 0 0 1 518 
7 0 5 0 0 0 1 518 
0 0 0 0 0 0 1 543 
0 0 0 0 0 0 4 520 522 524 525 
6 0 0 1 0 0 1 521 
3 0 0 1 0 0 2 527 523 
4 0 0 3 0 0 2 527 526 
10 0 0 3 0 0 2 529 526 
10 0 0 3 0 0 2 529 528 
9 0 0 3 0 0 1 526 
6 0 0 2 0 0 1 528 
4 0 0 4 0 0 1 529 
1 0 0 2 0 0 1 530 
2 0 0 3 0 0 1 530 
0 0 0 0 0 0 1 543 
0 0 0 0 0 0 3 532 535 541 
10 0 0 1 0 0 1 533 
2 0 0 3 0 0 2 537 534 
7 0 0 2 0 0 2 540 536 
1 0 0 2 0 0 1 538 
8 0 0 4 0 0 1 539 
4 0 0 3 0 0 1 539 
10 0 0 3 0 0 1 539 
4 0 0 1 0 0 1 542 
3 0 0 4 0 0 1 542 
9 0 0 2 0 0 1 542 
0 0 0 0 0 0 1 543 
0 0 0 0 0 0 0 
